2
100 2
38
4 1 2
7 1 1
9 1 2
11 1 1
17 1 2
19 1 2
24 1 2
26 1 1
27 1 1
28 1 2
30 1 2
32 1 2
34 1 1
36 1 2
46 1 1
47 1 1
51 1 1
55 1 1
57 1 1
58 1 1
59 1 1
60 1 2
63 1 3
65 1 1
68 1 1
70 1 1
72 1 1
74 1 1
75 1 1
76 1 1
77 1 1
80 1 1
81 1 1
82 1 1
90 1 1
91 1 1
94 1 1
96 1 1
